14° run output:
{
    "Function": "ClusterB300.tsp",
    "Problem dimension": [
        285,
        294,
        146,
        152,
        81,
        236,
        283,
        191,
        225,
        271,
        208,
        106,
        156,
        198,
        275,
        11,
        158,
        284,
        221,
        281,
        169,
        37,
        222,
        291,
        122,
        49,
        43,
        18,
        252,
        259,
        184,
        99,
        103,
        86,
        230,
        3,
        88,
        80,
        278,
        153,
        200,
        289,
        272,
        189,
        140,
        42,
        48,
        54,
        267,
        98,
        95,
        296,
        144,
        26,
        280,
        227,
        237,
        57,
        134,
        171,
        238,
        218,
        107,
        161,
        186,
        92,
        6,
        160,
        69,
        77,
        45,
        91,
        94,
        66,
        21,
        241,
        100,
        235,
        78,
        258,
        56,
        68,
        76,
        217,
        220,
        279,
        165,
        211,
        83,
        188,
        16,
        110,
        257,
        121,
        246,
        105,
        270,
        287,
        112,
        24,
        85,
        30,
        147,
        297,
        44,
        247,
        31,
        97,
        263,
        89,
        254,
        290,
        185,
        72,
        46,
        28,
        195,
        243,
        71,
        20,
        23,
        10,
        224,
        58,
        128,
        203,
        232,
        162,
        25,
        131,
        288,
        262,
        38,
        84,
        155,
        65,
        96,
        174,
        215,
        173,
        251,
        74,
        245,
        137,
        111,
        116,
        175,
        266,
        17,
        274,
        193,
        157,
        248,
        64,
        55,
        9,
        14,
        13,
        206,
        118,
        0,
        29,
        2,
        176,
        265,
        22,
        52,
        104,
        231,
        298,
        212,
        181,
        34,
        61,
        213,
        32,
        133,
        268,
        50,
        53,
        62,
        127,
        93,
        113,
        129,
        209,
        197,
        240,
        192,
        70,
        139,
        40,
        154,
        15,
        75,
        214,
        210,
        190,
        151,
        202,
        59,
        292,
        126,
        47,
        201,
        226,
        269,
        102,
        67,
        90,
        4,
        277,
        223,
        164,
        299,
        242,
        108,
        19,
        205,
        261,
        177,
        142,
        204,
        63,
        179,
        207,
        12,
        114,
        41,
        138,
        117,
        282,
        79,
        233,
        73,
        39,
        136,
        101,
        132,
        143,
        5,
        1,
        109,
        51,
        180,
        256,
        145,
        8,
        123,
        7,
        120,
        27,
        260,
        216,
        264,
        196,
        82,
        141,
        167,
        87,
        239,
        249,
        183,
        199,
        115,
        148,
        244,
        168,
        33,
        219,
        295,
        150,
        170,
        124,
        172,
        182,
        166,
        35,
        255,
        229,
        149,
        234,
        293,
        119,
        60,
        194,
        253,
        178,
        276,
        250,
        187,
        135,
        159,
        130,
        163,
        273,
        228,
        286,
        36,
        125
    ],
    "Global Optimum": 0,
    "Algorithm": "Genetic algorithm",
    "Parameters": {
        "population": 30,
        "offspring": 30,
        "mutation probability": 0.0033333333333333335,
        "crossover probability": 0.9
    },
    "Fitness": 304189,
    "Solution": [
        285,
        294,
        146,
        152,
        81,
        236,
        283,
        191,
        225,
        271,
        208,
        106,
        156,
        198,
        275,
        11,
        158,
        284,
        221,
        281,
        169,
        37,
        222,
        291,
        122,
        49,
        43,
        18,
        252,
        259,
        184,
        99,
        103,
        86,
        230,
        3,
        88,
        80,
        278,
        153,
        200,
        289,
        272,
        189,
        140,
        42,
        48,
        54,
        267,
        98,
        95,
        296,
        144,
        26,
        280,
        227,
        237,
        57,
        134,
        171,
        238,
        218,
        107,
        161,
        186,
        92,
        6,
        160,
        69,
        77,
        45,
        91,
        94,
        66,
        21,
        241,
        100,
        235,
        78,
        258,
        56,
        68,
        76,
        217,
        220,
        279,
        165,
        211,
        83,
        188,
        16,
        110,
        257,
        121,
        246,
        105,
        270,
        287,
        112,
        24,
        85,
        30,
        147,
        297,
        44,
        247,
        31,
        97,
        263,
        89,
        254,
        290,
        185,
        72,
        46,
        28,
        195,
        243,
        71,
        20,
        23,
        10,
        224,
        58,
        128,
        203,
        232,
        162,
        25,
        131,
        288,
        262,
        38,
        84,
        155,
        65,
        96,
        174,
        215,
        173,
        251,
        74,
        245,
        137,
        111,
        116,
        175,
        266,
        17,
        274,
        193,
        157,
        248,
        64,
        55,
        9,
        14,
        13,
        206,
        118,
        0,
        29,
        2,
        176,
        265,
        22,
        52,
        104,
        231,
        298,
        212,
        181,
        34,
        61,
        213,
        32,
        133,
        268,
        50,
        53,
        62,
        127,
        93,
        113,
        129,
        209,
        197,
        240,
        192,
        70,
        139,
        40,
        154,
        15,
        75,
        214,
        210,
        190,
        151,
        202,
        59,
        292,
        126,
        47,
        201,
        226,
        269,
        102,
        67,
        90,
        4,
        277,
        223,
        164,
        299,
        242,
        108,
        19,
        205,
        261,
        177,
        142,
        204,
        63,
        179,
        207,
        12,
        114,
        41,
        138,
        117,
        282,
        79,
        233,
        73,
        39,
        136,
        101,
        132,
        143,
        5,
        1,
        109,
        51,
        180,
        256,
        145,
        8,
        123,
        7,
        120,
        27,
        260,
        216,
        264,
        196,
        82,
        141,
        167,
        87,
        239,
        249,
        183,
        199,
        115,
        148,
        244,
        168,
        33,
        219,
        295,
        150,
        170,
        124,
        172,
        182,
        166,
        35,
        255,
        229,
        149,
        234,
        293,
        119,
        60,
        194,
        253,
        178,
        276,
        250,
        187,
        135,
        159,
        130,
        163,
        273,
        228,
        286,
        36,
        125
    ],
    "Nb of functions evaluations": 200010,
    "Computational time in seconds": 372.45859694480896,
    "Stopping criterion in evaluations": 200000
}